p cnf 12 21
12 -10 9 0
12 7 2 0
12 -4 3 0
11 7 5 0
11 7 -1 0
-11 2 1 0
10 -9 1 0
10 -7 -5 0
-10 6 -1 0
-10 -3 2 0
9 -8 7 0
9 -8 -7 0
9 -3 1 0
-8 7 5 0
8 7 -3 0
8 5 -3 0
-8 -5 -1 0
-7 -4 -2 0
-7 -3 -1 0
4 -3 -2 0
4 2 1 0
